p cnf 14 64
2 3 -4 0
-5 -11 14 0
1 5 9 0
9 -10 11 0
8 -12 14 0
-1 6 12 0
-1 5 10 0
2 -3 -12 0
-1 8 -9 0
4 9 12 0
-4 -10 -14 0
-8 11 13 0
1 -2 -14 0
11 -12 14 0
2 -5 -9 0
2 -4 -7 0
5 -8 -13 0
-1 -3 -12 0
-1 11 -13 0
8 12 13 0
-5 7 9 0
2 5 8 0
-2 6 8 0
-1 -13 14 0
-2 3 -7 0
1 5 12 0
-5 10 12 0
4 -5 8 0
9 11 13 0
2 8 10 0
-4 -10 -13 0
-4 6 -12 0
-6 7 9 0
-5 -7 -10 0
1 11 13 0
-3 -7 11 0
1 4 13 0
-1 -3 13 0
2 -9 -10 0
-2 4 5 0
2 4 13 0
5 -8 -11 0
7 -12 13 0
7 -8 14 0
-4 -7 -13 0
-9 10 -12 0
-2 7 -14 0
-1 -3 4 0
1 -8 -9 0
2 12 13 0
-1 -4 10 0
1 4 7 0
7 -10 13 0
3 -7 -10 0
-11 13 14 0
4 -5 6 0
-4 -9 13 0
-2 7 12 0
1 8 -13 0
8 12 -13 0
3 8 -13 0
-3 -10 -11 0
-9 11 13 0
3 -8 14 0
